instancias/entrada07.lp
Maximize
 23x1 + 36x2 + 49x3 + 51x4 + 19x5 + 40x6 + 61x7
Subject To
 76x1 + 15x2 + 50x3 + 62x4 + 17x5 + 12x6 + 2x7 <= 80
Bounds 
 0 <= x1 <= 1
 0 <= x2 <= 1
 0 <= x3 <= 1
 0 <= x4 <= 1
 0 <= x5 <= 1
 0 <= x6 <= 1
 0 <= x7 <= 1
General
 x1 x2 x3 x4 x5 x6 x7
End