instancias/entrada07.txt
7
80
23 36 49 51 19 40 61
76 15 50 62 17 12 2